50
    71    15    51    70    28    29     2    64    87    59    67    85    96    31    53    78    45    34    58     4    63    24    68    37    20    22    62    70    29    15     8    10    39    56    67    80    45    62    88    17    77    17    12    76    11    71    70    26    60    38
     8     6     5     5     6     1     8     5     1    10     8    10     4     3     4     8     1    10     4     8     9     1     3     8     7     4     1     8     6     1     8     2     1     8    10     2     6     6     9     1    10     1     7     9     4     2    10    10     9     7
  2706  1383  1969  1328  2584  2815  3049  1324  2317  2740  2086   787  2221  1313   713  2191  1269  2049  2063   981  1893  2582  1974  1764  1782   797  2663  2562  1048  2156  1566  1545  1122  2169  2647  2563  2460   819  2872  2963  1067  1590  1150  1489  2768  2236  1368  2646   806   913
